p cnf 17 16
-8 9 5 0
1 -2 -18 0
-16 -4 15 0
-16 -6 5 0
3 15 7 0
-8 -16 -12 1 0
-4 5 -2 0
11 5 7 0
1 -14 11 15 0
-6 11 -18 7 0
9 -6 -4 0
11 -4 13 0
1 3 12 0
1 4 6 9 -18 -16 17 -7 -5 0
-6 -12 13 0
11 3 0
